nbrTasks = 23;
nbrMachines = 2;
nbrTools = 2;
names = ["Take top","Put top in fixture","Take button","Mount button on top","Take top-button from fixture","Angle top-button","Lift top-button, hold top-button","Lift top-button, support","Turn top-button","Take ring","Mount ring on top-button, hold","Mount ring on top-button, mount","Fixate top-button-ring","Put top-button-ring in top_tray","Change to bottom-grabber tool","Take top-button-ring from top_tray","Take bottom","Put bottom in fixture","Take switch","Mount switch in bottom","Take bottom-switch","Put bottom-switch on table","Mount top-button-ring on bottom-switch"];

duration = [5,10,5,25,5,5,5,5,20,10,260,260,15,5,60,5,5,10,5,15,0,5,15];

identicalTasks = [1,2,3,4,5,6,7,8,9,10,11,12,13,14,15,16,17,18,19,20,21,22,23];

cycleNbr = [0,0,0,0,0,0,0,0,0,0,0,0,0,0,0,0,0,0,0,0,0,0,0];

% Trays
% 1: Top tray
% 2: Button tray
% 3: Ring tray
% 4: Bottom tray
% 5: Switch tray
tray = [1,0,2,0,0,0,0,0,0,3,0,0,0,1,0,1,4,0,5,0,0,0,0];

% Fixtures
% 1: Front fixture
fixture = [0,1,0,1,1,1,0,0,0,0,0,0,1,0,0,0,0,1,0,1,1,0,0];

% Components
% 1: Top
% 2: Button
% 3: Ring
% 4: Bottom
% 5: Switch
% 6: top-button
% 7: top-button-ring
% 8: bottom-switch
% 9: Complete
component = [|
1,1,2,2,6,6,6,6,6,3,0,3,7,7,0,7,4,4,5,4,8,8,7|
0,0,0,1,0,0,0,0,0,0,6,0,0,0,0,0,0,0,0,5,0,0,8|];
nbrComponents = 9;
maxComponentsUsed = 2;

component_created = [0,0,0,6,0,0,0,0,0,0,7,7,0,0,0,0,0,0,0,8,0,0,9];

% Putting a component somewhere
putting = [0,1,0,0,0,0,0,0,0,0,0,0,0,1,0,0,0,1,0,0,0,1,0];

% Mounting a component with another
mounting = [0,0,0,1,0,0,0,0,0,0,1,1,0,0,0,0,0,0,0,1,0,0,1];

% Taking a component
taking = [1,0,1,0,1,0,0,0,0,1,0,0,0,0,0,1,1,0,1,0,1,0,0];

% Tasks moving a component in some way
moving = [0,0,0,0,0,1,1,1,1,0,0,0,1,0,0,0,0,0,0,0,0,0,0];

maxConcurrentTasks = 2;
nbrConcurrentGroups = 2;
concurrentTasks =  [|
7,8|
11,12|];

orderedGroups = 1;
maxOrderedLength = 7;
order = [|5,6,7,9,11,13,14|];

resources = [1,1,1,1,1,1,1,1,1,1,1,1,1,1,1,1,1,1,1,1,1,1,1];

% Coords fromX,fromY,toX,toY
coords = [|
7,9,7,9|
4,9,4,9|
8,2,8,2|
5,2,5,2|
8,2,8,2|
8,2,8,2|
8,2,8,2|
8,2,7,9|
8,2,7,9|
7,9,7,9|
14,9,14,9|
7,9,7,9|
7,9,7,9|
9,2,9,2|
4,9,4,9|
8,12,8,12|
4,9,4,9|
11,9,11,9|
8,2,8,2|
12,5,12,5|
8,2,8,2|
8,2,8,2|
10,2,10,2|
10,2,10,2|];

% Tools
% 1: Default gripper/button-gripper/top-gripper/ring-gripper
% 2: Bottom-gripper/switch-gripper
tools_needed = [1,1,1,1,1,1,1,0,1,1,1,1,1,1,0,1,2,2,2,2,2,2,1];
tool_changes = 1;
changes_tool = [|
15|
2|];
default_tool = [1,1];
